============================[ Problem Statistics ]=============================|                                                                             ||  Number of variables:          4242                                         ||  Number of clauses:            9984                                         ||  Parse time:                   0.39 s                                       ||                                                                             |============================[ Search Statistics ]==============================| Conflicts |          ORIGINAL         |          LEARNT          | Progress ||           |    Vars  Clauses Literals |    Limit  Clauses Lit/Cl |          |===============================================================================|       100 |    1591     6189   594100 |     2269      100     53 | 62.501 % |===============================================================================restarts              : 3conflicts             : 216            (368 /sec)decisions             : 482            (0.00 % random) (821 /sec)propagations          : 11683          (19903 /sec)conflict literals     : 15623          (95.06 % deleted)CPU time              : 0.587 sSATISFIABLE